c Sudoku solution
p cnf 729 0
155 0
163 0
192 0
223 0
239 0
297 0
318 0
331 0
367 0
379 0
149 0
411 0
447 0
468 0
472 0
486 0
538 0
545 0
561 0
646 0
652 0
714 0
819 0
827 0
833 0
841 0
251 0
248 0
988 0
858 0
728 0
921 0
178 0
181 0
698 0
671 0
791 0
613 0
757 0
977 0
882 0
344 0
262 0
356 0
322 0
215 0
284 0
276 0
512 0
526 0
637 0
587 0
916 0
117 0
124 0
136 0
434 0
766 0
789 0
896 0
874 0
865 0
573 0
453 0
775 0
993 0
743 0
942 0
732 0
935 0
383 0
395 0
594 0
559 0
664 0
954 0
969 0
685 0
499 0
425 0
629 0
